(declare-fun limit_ack!185 () (_ BitVec 64))
(declare-fun epsabs_ack!183 () (_ BitVec 64))
(declare-fun epsrel_ack!184 () (_ BitVec 64))
(assert (not (bvult #x00000000000003e8 limit_ack!185)))
(assert (fp.leq ((_ to_fp 11 53) epsabs_ack!183) ((_ to_fp 11 53) #x0000000000000000)))
(assert (not (fp.lt ((_ to_fp 11 53) epsrel_ack!184)
            ((_ to_fp 11 53) #x3d09000000000000))))
(assert (not (fp.lt ((_ to_fp 11 53) epsrel_ack!184)
            ((_ to_fp 11 53) #x3a0fb0f6be506019))))

(check-sat)
(exit)
